Gurobi Optimizer version 9.1.2 build v9.1.2rc0 (linux64)
Thread count: 36 physical cores, 72 logical processors, using up to 32 threads
Optimize a model with 12 rows, 57 columns and 590 nonzeros
Model fingerprint: 0xf32eec78
Model has 47 quadratic constraints
Coefficient statistics:
  Matrix range     [2e-05, 3e+00]
  QMatrix range    [1e+00, 1e+00]
  QLMatrix range   [1e+00, 1e+00]
  Objective range  [8e-03, 7e-01]
  Bounds range     [1e+00, 1e+00]
  RHS range        [1e+00, 1e+00]
Presolve removed 9 rows and 0 columns

Continuous model is non-convex -- solving as a MIP.

Presolve removed 9 rows and 0 columns
Presolve time: 0.00s
Presolved: 189 rows, 57 columns, 443 nonzeros
Presolved model has 47 bilinear constraint(s)
Variable types: 57 continuous, 0 integer (0 binary)

Root relaxation: objective -1.743721e+00, 44 iterations, 0.00 seconds

    Nodes    |    Current Node    |     Objective Bounds      |     Work
 Expl Unexpl |  Obj  Depth IntInf | Incumbent    BestBd   Gap | It/Node Time

     0     0   -1.74372    0   38          -   -1.74372      -     -    0s
H    0     0                       0.6147548   -1.74372   384%     -    0s
     0     0   -1.64739    0    1    0.61475   -1.64739   368%     -    0s
H    0     0                      -1.6450460   -1.64739  0.14%     -    0s
     0     0     cutoff    0        -1.64505   -1.64505  0.00%     -    0s

Cutting planes:
  RLT: 25
  BQP: 3

Explored 1 nodes (76 simplex iterations) in 0.01 seconds
Thread count was 32 (of 72 available processors)

Solution count 2: -1.64505 0.614755 
No other solutions better than -1.64505

Optimal solution found (tolerance 1.00e-04)
Best objective -1.645045978473e+00, best bound -1.645045978473e+00, gap 0.0000%

User-callback calls 77, time in user-callback 0.00 sec
Gurobi Optimizer version 9.1.2 build v9.1.2rc0 (linux64)
Thread count: 36 physical cores, 72 logical processors, using up to 32 threads
Optimize a model with 60 rows, 300 columns and 15500 nonzeros
Model fingerprint: 0x9091aa47
Model has 250 quadratic constraints
Coefficient statistics:
  Matrix range     [1e-06, 4e+00]
  QMatrix range    [1e+00, 1e+00]
  QLMatrix range   [1e+00, 1e+00]
  Objective range  [2e-04, 1e+00]
  Bounds range     [1e+00, 1e+00]
  RHS range        [1e+00, 1e+00]
Presolve removed 12 rows and 0 columns

Continuous model is non-convex -- solving as a MIP.

Presolve removed 12 rows and 0 columns
Presolve time: 0.01s
Presolved: 1048 rows, 300 columns, 13862 nonzeros
Presolved model has 250 bilinear constraint(s)
Variable types: 300 continuous, 0 integer (0 binary)

Root relaxation: objective -2.288669e+01, 345 iterations, 0.02 seconds

    Nodes    |    Current Node    |     Objective Bounds      |     Work
 Expl Unexpl |  Obj  Depth IntInf | Incumbent    BestBd   Gap | It/Node Time

     0     0  -22.88669    0  204          -  -22.88669      -     -    0s
H    0     0                      -8.5992372  -22.88669   166%     -    0s
     0     0  -21.51847    0  157   -8.59924  -21.51847   150%     -    0s
H    0     0                     -13.9763455  -21.51847  54.0%     -    0s
     0     0  -21.37405    0  157  -13.97635  -21.37405  52.9%     -    0s
     0     0  -21.37161    0  147  -13.97635  -21.37161  52.9%     -    0s
     0     0  -21.36486    0  147  -13.97635  -21.36486  52.9%     -    0s
H    0     0                     -14.2012625  -21.36486  50.4%     -    0s
     0     0  -21.36386    0  147  -14.20126  -21.36386  50.4%     -    0s
     0     0  -21.36225    0  147  -14.20126  -21.36225  50.4%     -    0s
H    0     0                     -14.4360984  -21.36225  48.0%     -    0s
H    0     0                     -19.5005048  -21.36225  9.55%     -    0s
H    0     0                     -19.5741380  -21.36225  9.14%     -    0s
H    0     0                     -19.5938356  -21.36225  9.03%     -    0s
     0     2  -21.36225    0  147  -19.59384  -21.36225  9.03%     -    0s
* 1448  1196              69     -19.5962135  -20.79505  6.12%  53.2    1s
* 1561  1322              45     -19.5966566  -20.79505  6.12%  51.2    1s
* 1614  1322              63     -19.6515850  -20.79505  5.82%  50.1    1s
* 1903  1537              46     -20.2742010  -20.79505  2.57%  45.4    1s
* 1904  1537              46     -20.2742011  -20.79505  2.57%  45.4    1s
* 2771  1603              31     -20.2747066  -20.54094  1.31%  46.0    2s
* 3749  1815              59     -20.2811634  -20.52979  1.23%  41.3    2s
* 3789  1849              49     -20.3062147  -20.50480  0.98%  41.2    2s
* 3804  1849              42     -20.3457997  -20.50480  0.78%  41.1    2s
* 3805  1849              42     -20.3458028  -20.50480  0.78%  41.1    2s
* 5110  1851              53     -20.3462825  -20.44511  0.49%  35.6    3s
* 5249  1905              62     -20.3508056  -20.42406  0.36%  35.0    3s
* 5255  1905              64     -20.3508181  -20.42406  0.36%  34.9    3s
* 5602  1868              64     -20.3508181  -20.42406  0.36%  33.5    3s
* 5603  1868              63     -20.3508184  -20.42406  0.36%  33.5    3s
* 5945  1940              52     -20.3509501  -20.41388  0.31%  32.4    3s
* 5947  1940              53     -20.3509505  -20.41388  0.31%  32.4    3s
* 5976  1940              40     -20.3518134  -20.41388  0.30%  32.3    3s
* 6157  1940              53     -20.3528419  -20.41388  0.30%  31.7    3s
* 6158  1940              53     -20.3528420  -20.41388  0.30%  31.7    3s
* 6244  1902              50     -20.3603113  -20.38714  0.13%  31.4    3s
* 6246  1902              51     -20.3603133  -20.38714  0.13%  31.4    3s
* 7276  1732              50     -20.3603159  -20.37004  0.05%  28.7    3s
* 7619  1732              37     -20.3603238  -20.36798  0.04%  28.0    3s
* 7620  1732              37     -20.3603239  -20.36798  0.04%  28.0    3s
* 7625  1732              38     -20.3606155  -20.36798  0.04%  28.0    3s
* 8863  1659              40     -20.3606792  -20.36662  0.03%  25.4    3s
* 8865  1659              38     -20.3606859  -20.36662  0.03%  25.4    3s
* 8971  1671              42     -20.3607769  -20.36375  0.01%  25.2    4s
* 9569  1763              40     -20.3607795  -20.36271  0.01%  24.1    4s
* 9570  1763              40     -20.3607823  -20.36271  0.01%  24.1    4s
* 9573  1763              40     -20.3607823  -20.36271  0.01%  24.1    4s
* 9984  1763              53     -20.3608547  -20.36271  0.01%  23.3    4s
*10093  1763              42     -20.3609139  -20.36271  0.01%  23.1    4s
*10098  1763              45     -20.3609166  -20.36271  0.01%  23.1    4s
*10099  1763              44     -20.3609168  -20.36271  0.01%  23.1    4s
*10100  1763              43     -20.3609170  -20.36271  0.01%  23.1    4s

Cutting planes:
  RLT: 51
  BQP: 7

Explored 10129 nodes (234156 simplex iterations) in 4.19 seconds
Thread count was 32 (of 72 available processors)

Solution count 10: -20.3609 -20.3609 -20.3609 ... -20.3606

Optimal solution found (tolerance 1.00e-04)
Best objective -2.036091700506e+01, best bound -2.036271059538e+01, gap 0.0088%

User-callback calls 20921, time in user-callback 0.00 sec



objective value: -20.36091700506247
objective bound: -20.36271059537583
x_opt: [0.0, 1.0, 1.0, 0.0, 0.0, 0.0, 1.0, 1.0, 0.0, 0.0, 0.2610416542392721, 0.3985057396598431, 0.0, 1.0, 1.0, 1.0, 0.0, 1.0, 1.4171321794621275e-6, 0.0, 0.0, 1.0, 1.0, 1.0, 0.0, 1.0, 1.0, 1.0, 0.0, 0.8188614289468589, 0.9995132790066416, 0.7244420407017643, 0.0, 0.20014785291468445, 1.0, 1.0, 1.0000000765823491, 0.9999525727373954, 0.5001450160951505, 1.0, 0.8899518954783445, 0.1182636089457623, 1.0, 0.0, 0.0, 0.7117242694877141, 0.1483731814457007, 7.662102819391262e-6, 1.3923858681742273e-5, 1.0]
GUROBI solution time: 4.186665058135986

